(declare-fun var0 () String)
(assert (str.in.re var0 (re.++ (re.* (re.+ (str.to.re ")))"))) (re.++ (re.+ (re.union (str.to.re "'") (str.to.re "(("))) (re.++ (re.+ (re.union (str.to.re "%") (str.to.re "&&&"))) (re.++ (re.union (re.* (str.to.re """""")) (re.union (str.to.re "##") (str.to.re "$$$"))) (re.++ (re.* (re.* (str.to.re "!"))) (re.++ (re.* (re.+ (str.to.re "ZZZ"))) (re.++ (re.+ (re.union (str.to.re "X") (str.to.re "Y"))) (re.++ (re.+ (re.+ (str.to.re "W"))) (re.++ (re.union (re.+ (str.to.re "UU")) (re.* (str.to.re "VVV"))) (re.++ (re.+ (re.union (str.to.re "S") (str.to.re "TTT"))) (re.++ (re.* (re.+ (str.to.re "RRR"))) (re.++ (re.+ (re.+ (str.to.re "Q"))) (re.++ (re.* (re.+ (str.to.re "PP"))) (re.++ (re.union (re.* (str.to.re "M")) (re.union (str.to.re "N") (str.to.re "OOO"))) (re.++ (re.union (re.* (str.to.re "KKK")) (re.+ (str.to.re "L"))) (re.++ (re.* (re.+ (str.to.re "JJ"))) (re.++ (re.union (re.+ (str.to.re "GGG")) (re.union (str.to.re "H") (str.to.re "III"))) (re.++ (re.union (re.union (str.to.re "DD") (str.to.re "E")) (re.+ (str.to.re "F"))) (re.++ (re.union (re.+ (str.to.re "AA")) (re.union (str.to.re "BB") (str.to.re "CCC"))) (re.++ (re.+ (re.+ (str.to.re "z"))) (re.++ (re.* (re.* (str.to.re "y"))) (re.++ (re.+ (re.+ (str.to.re "xxx"))) (re.++ (re.+ (re.union (str.to.re "vv") (str.to.re "www"))) (re.++ (re.* (re.* (str.to.re "u"))) (re.++ (re.union (re.union (str.to.re "rrr") (str.to.re "s")) (re.+ (str.to.re "tt"))) (re.++ (re.* (re.* (str.to.re "qqq"))) (re.++ (re.+ (re.union (str.to.re "ooo") (str.to.re "ppp"))) (re.++ (re.* (re.* (str.to.re "nn"))) (re.++ (re.* (re.union (str.to.re "lll") (str.to.re "m"))) (re.++ (re.* (re.union (str.to.re "jj") (str.to.re "k"))) (re.++ (re.* (re.+ (str.to.re "iii"))) (re.++ (re.* (re.* (str.to.re "hhh"))) (re.++ (re.union (re.* (str.to.re "ee")) (re.union (str.to.re "ff") (str.to.re "ggg"))) (re.++ (re.* (re.* (str.to.re "d"))) (re.++ (re.+ (re.* (str.to.re "ccc"))) (re.++ (re.* (re.* (str.to.re "bbb"))) (re.++ (re.union (re.+ (str.to.re "99")) (re.+ (str.to.re "a"))) (re.++ (re.+ (re.+ (str.to.re "888"))) (re.++ (re.union (re.union (str.to.re "5") (str.to.re "666")) (re.* (str.to.re "777"))) (re.++ (re.union (re.union (str.to.re "2") (str.to.re "33")) (re.* (str.to.re "4"))) (re.* (re.union (str.to.re "0") (str.to.re "1")))))))))))))))))))))))))))))))))))))))))))))
(check-sat)